7897
1, 49, 32, 45, 19, 41, 8, 9, 10, 43, 33, 51, 11, 52, 14, 13, 27, 47, 26, 28, 12, 25, 4, 6, 5, 15, 37, 34, 35, 36, 39, 40, 38, 24, 48, 46, 16, 44, 29, 50, 20, 23, 30, 7, 2, 42, 21, 17, 3, 18, 31, 22
